networks/zoo_78_889/zoo_78_889-lower.txt
Number of groups: 38
Flow 1: {1 14 0} {14 53 0} 
Flow 2: {14 5 0} {5 10 0} {10 17 0} {17 56 0} 
Flow 3: {2 1 0} {1 40 0} 
Flow 4: {39 3 0} {3 42 0} 
Flow 4: {14 36 0} {36 37 0} {37 38 0} {38 39 0} Flow 5: {2 7 0} {7 6 0} {6 45 0} 
Flow 7: {14 16 0} {16 55 0} 
Flow 8: {6 9 0} {9 17 0} Flow 9: {9 25 0} {25 18 0} {18 57 0} 
Flow 10: {18 11 0} {11 19 0} {19 58 0} 
Flow 11: {19 22 0} {22 61 0} 
Flow 12: {11 29 0} {29 68 0} 
Flow 13: {16 33 0} {33 72 0} 
Flow 14: {3 39 0} {39 38 0} {38 37 0} {37 36 0} {36 14 0} {14 1 0} Flow 15: {1 2 0} {2 41 0} 
Flow 16: {2 4 0} {4 43 0} 
Flow 17: {5 44 0} 
Flow 18: {14 7 0} Flow 19: {7 46 0} 
Flow 20: {9 48 0} 
Flow 21: {10 49 0} 
Flow 22: {23 13 0} {13 12 0} {12 51 0} 
Flow 22: {17 25 0} {19 23 0} Flow 23: {13 52 0} 
Flow 29: {22 21 0} {21 60 0} 
Flow 31: {23 62 0} 
Flow 32: {29 28 0} {28 27 0} {27 26 0} {26 65 0} 
Flow 33: {27 66 0} 
Flow 34: {28 67 0} 
Flow 36: {3 31 0} {31 70 0} 
Flow 37: {33 32 0} {32 71 0} 
Flow 39: {39 15 0} {15 34 0} {34 73 0} 
Flow 40: {36 35 0} {35 74 0} 
Flow 41: {36 75 0} 
Flow 42: {38 77 0} 
Flow 43: {39 78 0} 
Flow 44: {4 2 0} Flow 61: {14 35 0} Flow 62: {5 14 0} Flow 68: {5 8 0} {8 47 0} 
Flow 69: {17 9 0} Flow 74: {38 15 0} {15 54 0} 
Flow 75: {5 16 0} Flow 79: {21 20 0} {20 59 0} 
Flow 83: {25 64 0} 
Flow 88: {39 30 0} {30 69 0} 
Flow 93: {16 35 0} Flow 95: {37 76 0} 
Flow 98: {6 7 0} {7 2 0} Flow 100: {7 14 0} Flow 103: {17 10 0} Flow 146: {8 5 0} Flow 151: {8 17 0} {9 6 0} Flow 178: {17 8 0} Flow 192: {10 5 0} Flow 194: {11 18 0} {18 25 0} {25 9 0} Flow 198: {25 17 0} Flow 230: {12 13 0} {13 23 0} {23 19 0} {19 11 0} Flow 242: {12 20 0} {20 21 0} Flow 243: {21 22 0} Flow 245: {22 29 0} Flow 290: {15 38 0} Flow 292: {15 39 0} Flow 386: {11 50 0} 
Flow 413: {22 19 0} Flow 422: {20 12 0} Flow 504: {24 18 0} Flow 513: {24 19 0} Flow 569: {26 27 0} {27 28 0} {28 29 0} {29 11 0} Flow 576: {29 22 0} Flow 616: {30 39 0} Flow 618: {30 3 0} Flow 641: {30 31 0} Flow 650: {31 3 0} Flow 675: {33 16 0} {16 14 0} {32 33 0} Flow 678: {16 5 0} Flow 728: {34 15 0} Flow 735: {35 14 0} Flow 737: {35 36 0} Flow 748: {35 16 0} Time taken running everything: 0 seconds
