networks/zoo_78_889/zoo_78_889-lower.sol
<?xml version = "1.0" encoding="UTF-8" standalone="yes"?>
<CPLEXSolution version="1.2">
 <header
   problemName="networks/zoo_78_889/zoo_78_889-lower.lp"
   solutionName="incumbent"
   solutionIndex="-1"
   objectiveValue="38"
   solutionTypeValue="3"
   solutionTypeString="primal"
   solutionStatusValue="101"
   solutionStatusString="integer optimal solution"
   solutionMethodString="mip"
   primalFeasible="1"
   dualFeasible="1"
   MIPNodes="0"
   MIPIterations="0"
   writeLevel="3"/>
 <quality
   epInt="1.0000000000000001e-05"
   epRHS="9.9999999999999995e-07"
   maxIntInfeas="0"
   maxPrimalInfeas="0"
   maxX="1"
   maxSlack="1"/>
 <variables>
  <variable name="Y(1,14)" index="13" value="1"/>
  <variable name="Y(2,17)" index="93" value="1"/>
  <variable name="Y(3,1)" index="154" value="1"/>
  <variable name="Y(4,3)" index="233" value="1"/>
  <variable name="Y(5,6)" index="313" value="1"/>
  <variable name="Y(7,16)" index="477" value="1"/>
  <variable name="Y(9,18)" index="633" value="1"/>
  <variable name="Y(10,19)" index="711" value="1"/>
  <variable name="Y(11,22)" index="791" value="1"/>
  <variable name="Y(12,29)" index="875" value="1"/>
  <variable name="Y(13,33)" index="956" value="1"/>
  <variable name="Y(15,2)" index="1079" value="1"/>
  <variable name="Y(16,4)" index="1158" value="1"/>
  <variable name="Y(17,5)" index="1236" value="1"/>
  <variable name="Y(19,7)" index="1392" value="1"/>
  <variable name="Y(20,9)" index="1471" value="1"/>
  <variable name="Y(21,10)" index="1549" value="1"/>
  <variable name="Y(22,12)" index="1628" value="1"/>
  <variable name="Y(23,13)" index="1706" value="1"/>
  <variable name="Y(29,21)" index="2176" value="1"/>
  <variable name="Y(31,23)" index="2332" value="1"/>
  <variable name="Y(32,26)" index="2412" value="1"/>
  <variable name="Y(33,27)" index="2490" value="1"/>
  <variable name="Y(34,28)" index="2568" value="1"/>
  <variable name="Y(36,31)" index="2725" value="1"/>
  <variable name="Y(37,32)" index="2803" value="1"/>
  <variable name="Y(39,34)" index="2959" value="1"/>
  <variable name="Y(40,35)" index="3037" value="1"/>
  <variable name="Y(41,36)" index="3115" value="1"/>
  <variable name="Y(42,38)" index="3194" value="1"/>
  <variable name="Y(43,39)" index="3272" value="1"/>
  <variable name="Y(68,8)" index="5166" value="1"/>
  <variable name="Y(74,15)" index="5635" value="1"/>
  <variable name="Y(79,20)" index="6025" value="1"/>
  <variable name="Y(83,25)" index="6338" value="1"/>
  <variable name="Y(88,30)" index="6728" value="1"/>
  <variable name="Y(95,37)" index="7274" value="1"/>
  <variable name="Y(386,11)" index="29655" value="1"/>
  <variable name="X(1,2,15)" index="68467" value="1"/>
  <variable name="X(1,14,1)" index="69342" value="1"/>
  <variable name="X(1,40,3)" index="70233" value="1"/>
  <variable name="X(2,1,3)" index="71122" value="1"/>
  <variable name="X(2,4,16)" index="72024" value="1"/>
  <variable name="X(2,7,5)" index="72902" value="1"/>
  <variable name="X(2,41,15)" index="73801" value="1"/>
  <variable name="X(3,31,36)" index="74711" value="1"/>
  <variable name="X(3,39,14)" index="75578" value="1"/>
  <variable name="X(3,42,4)" index="76457" value="1"/>
  <variable name="X(4,2,44)" index="77386" value="1"/>
  <variable name="X(4,43,16)" index="78247" value="1"/>
  <variable name="X(5,8,68)" index="79188" value="1"/>
  <variable name="X(5,10,2)" index="80011" value="1"/>
  <variable name="X(5,14,62)" index="80960" value="1"/>
  <variable name="X(5,16,75)" index="81862" value="1"/>
  <variable name="X(5,44,17)" index="82693" value="1"/>
  <variable name="X(6,7,98)" index="83663" value="1"/>
  <variable name="X(6,9,8)" index="84462" value="1"/>
  <variable name="X(6,45,5)" index="85348" value="1"/>
  <variable name="X(7,2,98)" index="86330" value="1"/>
  <variable name="X(7,6,5)" index="87126" value="1"/>
  <variable name="X(7,14,100)" index="88110" value="1"/>
  <variable name="X(7,46,19)" index="88918" value="1"/>
  <variable name="X(8,5,146)" index="89934" value="1"/>
  <variable name="X(8,17,151)" index="90828" value="1"/>
  <variable name="X(8,47,68)" index="91634" value="1"/>
  <variable name="X(9,6,151)" index="92606" value="1"/>
  <variable name="X(9,17,8)" index="93352" value="1"/>
  <variable name="X(9,25,9)" index="94242" value="1"/>
  <variable name="X(9,48,20)" index="95142" value="1"/>
  <variable name="X(10,5,192)" index="96203" value="1"/>
  <variable name="X(10,17,2)" index="96902" value="1"/>
  <variable name="X(10,49,21)" index="97810" value="1"/>
  <variable name="X(11,18,194)" index="98872" value="1"/>
  <variable name="X(11,19,10)" index="99577" value="1"/>
  <variable name="X(11,29,12)" index="100468" value="1"/>
  <variable name="X(11,50,386)" index="101731" value="1"/>
  <variable name="X(12,13,230)" index="102464" value="1"/>
  <variable name="X(12,20,242)" index="103365" value="1"/>
  <variable name="X(12,51,22)" index="104034" value="1"/>
  <variable name="X(13,12,22)" index="104923" value="1"/>
  <variable name="X(13,23,230)" index="106020" value="1"/>
  <variable name="X(13,52,23)" index="106702" value="1"/>
  <variable name="X(14,1,14)" index="107582" value="1"/>
  <variable name="X(14,5,2)" index="108459" value="1"/>
  <variable name="X(14,7,18)" index="109364" value="1"/>
  <variable name="X(14,16,7)" index="110242" value="1"/>
  <variable name="X(14,35,61)" index="111185" value="1"/>
  <variable name="X(14,36,4)" index="112017" value="1"/>
  <variable name="X(14,53,1)" index="112903" value="1"/>
  <variable name="X(15,34,39)" index="113830" value="1"/>
  <variable name="X(15,38,290)" index="114970" value="1"/>
  <variable name="X(15,39,292)" index="115861" value="1"/>
  <variable name="X(15,54,74)" index="116532" value="1"/>
  <variable name="X(16,5,678)" index="118025" value="1"/>
  <variable name="X(16,14,675)" index="118911" value="1"/>
  <variable name="X(16,33,13)" index="119138" value="1"/>
  <variable name="X(16,35,93)" index="120107" value="1"/>
  <variable name="X(16,55,7)" index="120910" value="1"/>
  <variable name="X(17,8,178)" index="121970" value="1"/>
  <variable name="X(17,9,69)" index="122750" value="1"/>
  <variable name="X(17,10,103)" index="123673" value="1"/>
  <variable name="X(17,25,22)" index="124481" value="1"/>
  <variable name="X(17,56,2)" index="125350" value="1"/>
  <variable name="X(18,11,10)" index="126247" value="1"/>
  <variable name="X(18,25,194)" index="127320" value="1"/>
  <variable name="X(18,57,9)" index="128024" value="1"/>
  <variable name="X(19,11,230)" index="129134" value="1"/>
  <variable name="X(19,22,11)" index="129804" value="1"/>
  <variable name="X(19,23,22)" index="130704" value="1"/>
  <variable name="X(19,58,10)" index="131581" value="1"/>
  <variable name="X(20,12,422)" index="132882" value="1"/>
  <variable name="X(20,21,242)" index="133591" value="1"/>
  <variable name="X(20,59,79)" index="134317" value="1"/>
  <variable name="X(21,20,79)" index="135206" value="1"/>
  <variable name="X(21,22,243)" index="136259" value="1"/>
  <variable name="X(21,60,29)" index="136934" value="1"/>
  <variable name="X(22,19,413)" index="138207" value="1"/>
  <variable name="X(22,21,29)" index="138712" value="1"/>
  <variable name="X(22,29,245)" index="139817" value="1"/>
  <variable name="X(22,61,11)" index="140472" value="1"/>
  <variable name="X(23,13,22)" index="141372" value="1"/>
  <variable name="X(23,19,230)" index="142469" value="1"/>
  <variable name="X(23,62,31)" index="143159" value="1"/>
  <variable name="X(24,18,504)" index="144521" value="1"/>
  <variable name="X(24,19,513)" index="145419" value="1"/>
  <variable name="X(25,9,194)" index="145989" value="1"/>
  <variable name="X(25,17,198)" index="146882" value="1"/>
  <variable name="X(25,18,9)" index="147582" value="1"/>
  <variable name="X(25,64,83)" index="148545" value="1"/>
  <variable name="X(26,27,569)" index="149920" value="1"/>
  <variable name="X(26,65,32)" index="150272" value="1"/>
  <variable name="X(27,26,32)" index="151161" value="1"/>
  <variable name="X(27,28,569)" index="152587" value="1"/>
  <variable name="X(27,66,33)" index="152940" value="1"/>
  <variable name="X(28,27,32)" index="153828" value="1"/>
  <variable name="X(28,29,569)" index="155254" value="1"/>
  <variable name="X(28,67,34)" index="155608" value="1"/>
  <variable name="X(29,11,569)" index="157032" value="1"/>
  <variable name="X(29,22,576)" index="157928" value="1"/>
  <variable name="X(29,28,32)" index="158273" value="1"/>
  <variable name="X(29,68,12)" index="159142" value="1"/>
  <variable name="X(30,3,618)" index="160637" value="1"/>
  <variable name="X(30,31,641)" index="161549" value="1"/>
  <variable name="X(30,39,616)" index="162413" value="1"/>
  <variable name="X(30,69,88)" index="162774" value="1"/>
  <variable name="X(31,3,650)" index="164225" value="1"/>
  <variable name="X(31,70,36)" index="164500" value="1"/>
  <variable name="X(32,33,675)" index="166028" value="1"/>
  <variable name="X(32,71,37)" index="166279" value="1"/>
  <variable name="X(33,16,675)" index="167806" value="1"/>
  <variable name="X(33,32,37)" index="168057" value="1"/>
  <variable name="X(33,72,13)" index="168922" value="1"/>
  <variable name="X(34,15,728)" index="170526" value="1"/>
  <variable name="X(34,73,39)" index="170726" value="1"/>
  <variable name="X(35,14,735)" index="172311" value="1"/>
  <variable name="X(35,16,748)" index="173213" value="1"/>
  <variable name="X(35,36,737)" index="174091" value="1"/>
  <variable name="X(35,74,40)" index="174283" value="1"/>
  <variable name="X(36,14,14)" index="175146" value="1"/>
  <variable name="X(36,35,40)" index="176061" value="1"/>
  <variable name="X(36,37,4)" index="176914" value="1"/>
  <variable name="X(36,75,41)" index="177840" value="1"/>
  <variable name="X(37,36,14)" index="178702" value="1"/>
  <variable name="X(37,38,4)" index="179581" value="1"/>
  <variable name="X(37,76,95)" index="180561" value="1"/>
  <variable name="X(38,15,74)" index="181429" value="1"/>
  <variable name="X(38,37,14)" index="182258" value="1"/>
  <variable name="X(38,39,4)" index="183137" value="1"/>
  <variable name="X(38,77,42)" index="184064" value="1"/>
  <variable name="X(39,3,4)" index="184915" value="1"/>
  <variable name="X(39,15,39)" index="185839" value="1"/>
  <variable name="X(39,30,88)" index="186777" value="1"/>
  <variable name="X(39,38,14)" index="187592" value="1"/>
  <variable name="X(39,78,43)" index="188510" value="1"/>
 </variables>
</CPLEXSolution>
